2772,3164,3165,3192,3528,3529,3530,3556,3557,3558,3584,3585,3920,3921,3922,3948,3949,3976,4312,4340;3193,3194,3220,3221,3586,3587,3612,3613,3614,3950,3977,3978,4004,4005,4006,4007,4368,4397;3166,3167,3168,3531,3559;2438,2801,2802,2803,2829,2830,2831,3195,3222,3223,3224,3615;2020,2021,2048,2049,2410,2411,2412,2413,2414,2439,2440,2441,2442,2773,2774,2775,2776,2777,2778,2804,2805,2806,2832,2833,2834,3169,3196,3197,3225,3616;2408,2409,2437,2800,2828;1659,1660,2022,2023,2024,2050,2051,2052,2078,2079,2415,2416,2443,2444;514,905,906,907,1268,1269,1270,1271,1296,1297,1298,1299,1661,1662,1688,1689,1690,2053,2080,2081;126,515,516,517,518,908,909;127,519